Title: Category:INCAR tag
URL: https://vasp.at/wiki/INCAR_tags
============================================================
The
INCAR file is the central
input file
. It contains
INCAR tags
that specify the parameters, algorithms and settings for the VASP calculation.
Bellow, all
INCAR tags
are listed:
Pages in category "INCAR tag"
The following 200 pages are in this category, out of 601 total.
(previous page) (
next page
) A
ADDGRID
ALPHA VDW
AMGGAC
AMIX MAG
ANDERSEN PROB
ANTIRES B
BANDGAP
BMIX MAG
BPARAM C
CH AMPLIFICATION
CH LSPEC
CH NEDOS
CH SIGMA
CHECKPOINT FD
CLL
CUTOFF MU
CUTOFF SIGMA
CUTOFF TYPE D
DEPER
DFTD4 MODEL
DFTD4 XC
DIMER DIST
DIPOL E
EBREAK
EFERMI NEDOS
EFIELD
EFIELD PEAD
EFOR
ELPH DECOMPOSE
ELPH DRIVER
ELPH FERMI NEDOS
ELPH IGNORE IMAG PHONONS
ELPH ISMEAR
ELPH KSPACING
ELPH LR
ELPH MODE
ELPH NBANDS
ELPH NBANDS SUM
ELPH POT FFT MESH
ELPH POT GENERATE
ELPH POT LATTICE
ELPH PREPARE
ELPH RUN
ELPH SCATTERING APPROX
ELPH SELFEN BAND START
ELPH SELFEN BAND STOP
ELPH SELFEN BROAD TOL
ELPH SELFEN CARRIER DEN
ELPH SELFEN CARRIER DEN RANGE
ELPH SELFEN CARRIER PER CELL
ELPH SELFEN DELTA
ELPH SELFEN DW
ELPH SELFEN ENERGY WINDOW
ELPH SELFEN FAN
ELPH SELFEN G SKIP
ELPH SELFEN GAPS
ELPH SELFEN IKPT
ELPH SELFEN IMAG SKIP
ELPH SELFEN KPTS
ELPH SELFEN MU
ELPH SELFEN MU RANGE
ELPH SELFEN NW
ELPH SELFEN STATIC
ELPH SELFEN TEMPS
ELPH SELFEN TEMPS RANGE
ELPH SELFEN WRANGE
ELPH TRANSPORT
ELPH TRANSPORT DFERMI TOL
ELPH TRANSPORT DRIVER
ELPH TRANSPORT EMAX
ELPH TRANSPORT EMAX PLOT
ELPH TRANSPORT EMIN
ELPH TRANSPORT EMIN PLOT
ELPH TRANSPORT NEDOS PLOT
ELPH USEBLAS
ELPH WF CACHE PREFILL
ELPH WF COMM OPT
ELPH WF REDISTRIBUTE
ELPH WRITE HDF5VEL
ELPH WRITE TEXTVEL
EMAX
Construction:EWALD CUTOFF F
FBIAS A
FBIAS D
FBIAS R0
FERDO
FMP ACTIVE
FMP DIRECTION
FMP PERIOD
FMP SNUMBER
FMP SWAPNUM
FOCKCORR G
GAMMA VDW
GGA
GGA COMPAT H
HFALPHA
HILLS BIN
HILLS H
HILLS W
HITOLER I
I CONSTRAINED M
IALGO
IALL IN ONE
IBAND
IFC ASR
IFC LR
IGPAR
IMAGE N
IMAGES
IRC DELTA0
IRC DIRECTION
IRC MAXSTEP
IRC MINSTEP
IRC STOP
IRC VNORM0
ISEARCH
IVDW NL
IWAVPR K
KBLOCK
KERNEL TRUNCATION/FACTOR
KERNEL TRUNCATION/IDIMENSIONALITY
KERNEL TRUNCATION/IPAD
KERNEL TRUNCATION/ISURFACE
KERNEL TRUNCATION/LCOARSEN
KERNEL TRUNCATION/LTRUNCATE
KGAMMA
KPOINT BSE
KPOINTS OPT MODE
KPOINTS OPT NKBATCH
KPUSE
KSPACING OPT L
LADDER
(previous page) (
next page
)
